Second Year/First Semester/Algorithm Analysis/Homework 2/sat_in/bonus/23.wcnf
p wcnf 9 23 113
113 1 2 0
113 1 4 0
113 1 5 0
113 1 6 0
113 1 8 0
113 1 9 0
113 2 3 0
113 2 6 0
113 2 7 0
113 3 6 0
113 3 7 0
113 5 6 0
113 7 8 0
113 7 9 0
8 -1 0
11 -2 0
12 -3 0
14 -4 0
13 -5 0
14 -6 0
12 -7 0
14 -8 0
14 -9 0
